(set-logic QF_S)
(declare-const x String)
(declare-const y String)
(declare-const m String)
(declare-const n String)
(assert (str.in.re x (re.++ (str.to.re "Y") (re.* (str.to.re "=")))))
(assert (str.in.re x (re.++ (str.to.re "N") (re.* (str.to.re "N")))))
(assert (str.in.re x (re.++ (str.to.re "N") (re.* (re.* (re.++ (str.to.re "=") (str.to.re "Y")))))))
(check-sat)
